c read Graph
c width = 661
c time = 1470 ms
c width = 28
c time = 2085 ms
c width = 27
c time = 2538 ms
c width = 26
c time = 4989 ms
c width = 25
c time = 8689 ms
c width = 25
c time = 119931 ms
s td 957 26 1002
b 1 1 226 487 683
b 2 226 406 487 683 757
b 3 226 406 650 683 703 757
b 4 620 650 683 703
b 5 226 342 650 683
b 6 226 239 406 650 703 757
b 7 96 239 406 650 703 757 842
b 8 96 239 382 650 703 709 757 842
b 9 650 703 709 944
b 10 382 480 703 709 757 842
b 11 480 757 818 842
b 12 96 239 382 534 650 709 842
b 13 96 239 382 534 705 709 842
b 14 22 96 130 148 185 239 295 318 327 337 382 436 492 521 522 530 534 569 575 580 667 705 842 880 908 995
b 15 22 96 130 148 185 248 295 318 327 337 436 492 521 522 530 534 569 575 580 597 667 705 842 880 908 995
b 16 248 597 625 842
b 17 22 96 130 148 185 201 239 295 318 327 337 382 436 492 521 522 530 534 569 575 580 667 880 908 995
b 18 22 96 148 201 239 382 436 569 580 908 961 995
b 19 96 148 201 239 382 436 569 580 695 908 961 995
b 20 96 148 201 239 382 436 474 569 580 695 908 961
b 21 148 201 239 332 382 436 474 569 580 695 908 961
b 22 51 148 201 239 332 436 474 569 580 695 908 961
b 23 51 201 332 474 695 784 961
b 24 51 332 474 580 695 924 961
b 25 27 51 239 332 474 695 961
b 26 51 281 332 474 569 695 961
b 27 51 332 339 474 695 908 961
b 28 96 130 185 201 239 295 318 327 337 382 436 439 492 521 522 530 534 569 575 580 667 880 995
b 29 130 201 295 318 327 439 492 521 522 530 575 691
b 30 130 201 295 318 327 439 492 522 530 575 649 691
b 31 130 201 295 327 439 492 522 530 575 623 649 691
b 32 130 201 295 327 439 492 530 575 623 649 689 691
b 33 130 201 295 439 492 530 535 575 623 649 689 691
b 34 279 535 575 623 649 689 691
b 35 74 439 535 623 649 689 691
b 36 141 530 535 623 649 689 691
b 37 492 535 623 649 689 691 815
b 38 130 535 623 649 689 691 906
b 39 96 130 176 185 239 255 295 318 327 337 382 436 439 492 522 534 569 575 580 667 670 880 986 995
b 40 96 130 139 176 239 255 295 318 327 337 382 436 492 522 534 569 575 579 580 667 670 880 986 995
b 41 96 130 139 239 295 318 327 337 382 436 492 522 534 569 575 579 580 667 880 986 995
b 42 96 130 139 239 273 295 318 327 337 382 436 492 522 534 569 575 579 580 667 693 804 880 995
b 43 3 130 273 295 318 327 337 492 522 570 575 579 667 693 800 804 880
b 44 3 130 273 295 318 327 337 492 522 570 575 667 693 766 791 800 804 880
b 45 3 250 273 766 791 880
b 46 3 250 273 880 966
b 47 3 378 880 966
b 48 3 273 483 966
b 49 3 130 295 318 327 337 492 522 570 575 667 693 704 766 791 800 804 880
b 50 455 570 704 791 804 880
b 51 455 570 710 804 880
b 52 455 570 657 710 804
b 53 370 455 657 804
b 54 455 648 657 710
b 55 3 130 295 318 327 337 492 516 522 570 575 667 704 766 791 800
b 56 3 130 318 337 516 522 570 575 704 766 771 800
b 57 130 318 522 575 766 771 907
b 58 130 318 340 522 766 771 907
b 59 130 167 318 340 766 771 907
b 60 130 150 167 340 766 771 907
b 61 130 150 167 184 340 771 907
b 62 123 130 150 167 184 907
b 63 123 150 184 412 907
b 64 150 412 583 907
b 65 123 412 425 907
b 66 75 123 184 412
b 67 167 184 340 771 857
b 68 167 184 506 771 857
b 69 184 268 506 857
b 70 150 603 766 907
b 71 130 318 337 516 522 570 575 578 704 771 800
b 72 130 318 522 575 578 704 826
b 73 130 318 522 578 704 787 826
b 74 130 318 497 578 704 787 826
b 75 266 318 497 578 704 787 826
b 76 263 266 497 578 704 787 826
b 77 39 263 266 497 578 704 826
b 78 39 270 497 704
b 79 39 129 263 497 826
b 80 129 497 581 826
b 81 129 263 738 826
b 82 39 104 129 497
b 83 263 266 578 591 787
b 84 266 578 591 788
b 85 219 578 591 787
b 86 73 337 516 578 771
b 87 295 327 492 516 667 696 791
b 88 295 327 369 492 516 696 791
b 89 225 327 369 492 516 696 791
b 90 180 225 327 369 516 696 791
b 91 180 225 369 516 680 696 791
b 92 180 369 516 680 725
b 93 180 323 516 725
b 94 283 369 516 725
b 95 69 225 369 516 680 696 791
b 96 69 225 568 680 696
b 97 448 568 680 696
b 98 225 293 568 696
b 99 69 225 244 568
b 100 69 225 791 990
b 101 693 704 766 800 846 880
b 102 671 693 800 846 880
b 103 664 671 693 800 846
b 104 131 664 693 846
b 105 664 671 690 846
b 106 3 377 570 579 800
b 107 96 139 239 273 331 382 436 534 569 580 693 804 995
b 108 139 172 239 273 331 382 580 693 804 995
b 109 172 239 382 580 693 792 804 995
b 110 239 382 580 792 804 819 995
b 111 382 580 783 792 804 819 995
b 112 367 580 783 792 804 819 995
b 113 299 367 580 783 792 804 819
b 114 299 367 783 792 804 819 872
b 115 367 736 783 792 872
b 116 367 736 792 799
b 117 208 736 783 792
b 118 299 783 792 804 819 832 872
b 119 299 719 819 832 872
b 120 297 719 819 872
b 121 299 305 719 832
b 122 205 299 719 819
b 123 289 299 783 792 804 832
b 124 289 299 602 832
b 125 172 320 693 792
b 126 128 172 239 273 331 382 580 804 995
b 127 56 128 172 273 331
b 128 41 56 128 273
b 129 128 172 239 382 580 804 866 995
b 130 135 172 804 866
b 131 128 239 382 580 589 866 995
b 132 128 239 398 580 589 866 995
b 133 128 364 398 580 589 866 995
b 134 61 128 364 398 580 589 866
b 135 61 364 398 580 589 866 902
b 136 364 589 866 902 940
b 137 38 589 866 940
b 138 364 866 879 940
b 139 15 61 398 580 589 902
b 140 15 61 162 398 902
b 141 15 162 405 902
b 142 15 162 335 398
b 143 29 61 162 398
b 144 61 128 398 875
b 145 96 331 436 534 569 693 852
b 146 96 331 436 534 569 639 852
b 147 96 331 436 489 534 639 852
b 148 96 331 452 489 534 639 852
b 149 331 452 489 534 639 776 852
b 150 639 768 776 852
b 151 331 452 489 534 543 639 776
b 152 331 452 489 543 870
b 153 331 452 764 870
b 154 331 489 870 926
b 155 267 489 534 543 639 776
b 156 267 488 543 639 776
b 157 458 488 639 776
b 158 267 488 504 639
b 159 267 488 543 721
b 160 96 139 176 215 255 295 318 327 436 492 534 569 575 579 580 667 670 986 995
b 161 176 215 295 327 407 492 579 667 670
b 162 215 295 327 407 492 667 938
b 163 215 295 327 407 492 751 938
b 164 160 215 327 407 492 751 938
b 165 107 160 215 407 492 751 938
b 166 107 160 215 407 621 751 938
b 167 107 160 407 411 621 751
b 168 287 407 411 751
b 169 94 160 407 411
b 170 34 107 411 621 751
b 171 34 107 256 621
b 172 107 495 621 938
b 173 160 215 407 621 754 938
b 174 2 215 754 938
b 175 35 621 754 938
b 176 96 139 176 215 255 295 318 436 534 569 575 579 580 666 667 670 986 995
b 177 96 139 176 215 255 295 318 436 534 541 569 575 579 580 666 667 670 986 995
b 178 96 139 176 215 255 436 534 541 569 580 666 670 743 986 995
b 179 96 139 176 215 255 274 436 534 541 569 580 666 743 986 995
b 180 78 139 176 215 274 666
b 181 78 139 176 274 988
b 182 139 176 195 988
b 183 176 274 688 988
b 184 96 118 139 255 274 436 534 541 569 580 666 743 986 995
b 185 96 118 274 436 534 569 580 743 979 986 995
b 186 96 118 274 534 580 654 743 979 995
b 187 96 534 580 654 743 813 995
b 188 96 534 654 701 743 813 995
b 189 96 146 534 654 701 743 813
b 190 88 96 146 654 701 743 813
b 191 87 88 146 654 701 743 813
b 192 87 88 146 531 654 701 813
b 193 31 87 88 146 531 654 813
b 194 31 146 359 531 813
b 195 146 156 359 813
b 196 146 282 359 531
b 197 31 359 674 813
b 198 31 87 588 813
b 199 88 531 654 701 811
b 200 531 654 701 811 839
b 201 216 531 811 839
b 202 96 118 274 317 534 580 654 979 995
b 203 54 96 118 317 534 580 979 995
b 204 32 54 118 979
b 205 54 96 317 472 534 580 995
b 206 54 317 352 472 534 580 995
b 207 54 317 352 472 580 958 995
b 208 54 218 317 352 472 580 958
b 209 54 218 317 352 472 958 981
b 210 54 218 472 798 958 981
b 211 54 472 727 798
b 212 54 211 798 958
b 213 218 472 558 798 981
b 214 218 314 558 981
b 215 218 352 895 981
b 216 54 317 352 644 958 981
b 217 60 317 352 644
b 218 352 414 644 981
b 219 274 317 654 862 979
b 220 274 317 507 862
b 221 70 96 118 436 534 569 743 979
b 222 70 96 118 436 534 569 914
b 223 70 96 118 534 569 652 914
b 224 70 96 118 534 604 652 914
b 225 70 96 534 604 652 897 914
b 226 70 96 604 652 748 897 914
b 227 17 70 96 652 748 914
b 228 17 70 745 748 914
b 229 17 70 432 745 748
b 230 17 70 237 432 745
b 231 233 237 432 745
b 232 70 408 604 652 748 897 914
b 233 408 652 748 897 984
b 234 408 692 897 984
b 235 606 652 897 984
b 236 408 564 604 897
b 237 70 227 743 979
b 238 118 139 255 541 666 810
b 239 118 139 255 571 810
b 240 139 255 392 571 810
b 241 139 255 392 501
b 242 63 255 392 571
b 243 139 215 272 541 670 743
b 244 139 272 670 743 780
b 245 272 670 743 780 814
b 246 272 354 743 814
b 247 272 389 780 814
b 248 181 255 295 318 541 575 579 667 670
b 249 181 295 318 541 575 667 971
b 250 181 232 295 541 575 667 971
b 251 181 232 295 541 667 723 971
b 252 181 232 541 667 723 836 971
b 253 181 630 723 836 971
b 254 177 181 630 971
b 255 181 459 630 723
b 256 181 232 254 541 667 836 971
b 257 159 232 254 541 667 836
b 258 159 232 254 836 959
b 259 159 254 463 959
b 260 232 567 836 959
b 261 114 159 232 959
b 262 159 254 541 734
b 263 176 255 295 318 575 579 666 667 856
b 264 295 318 575 666 667 762 856
b 265 295 318 666 667 762 856 883
b 266 666 762 883 947
b 267 295 318 532 666 667 762 856 883
b 268 295 306 532 666 856 883
b 269 306 532 856 909
b 270 318 496 532 667 762 856 883
b 271 345 496 532 856
b 272 50 496 532 667 762 883
b 273 50 384 496 532 762 883
b 274 50 312 384 762
b 275 384 551 762 883
b 276 50 313 384 496 532
b 277 50 313 384 700
b 278 96 130 176 185 239 255 295 318 327 382 436 439 492 522 534 569 575 580 665 667 670 769 986 995
b 279 96 130 176 185 200 239 255 295 318 327 382 436 439 492 522 534 569 575 665 667 670 769 986
b 280 96 200 239 382 439 534 752 769
b 281 101 200 439 752
b 282 96 239 382 534 642 752 769
b 283 96 239 440 534 642 752 769
b 284 96 302 440 534 642 752 769
b 285 96 302 440 534 642 752 916
b 286 302 440 534 642 752 877 916
b 287 440 534 642 752 877 916 934
b 288 186 440 534 642 877 934
b 289 186 440 808 877 934
b 290 186 440 608 808
b 291 44 440 808 877
b 292 642 752 790 916 934
b 293 24 642 790 934
b 294 399 642 752 790
b 295 238 752 790 916
b 296 137 302 440 877
b 297 130 176 185 200 255 291 295 318 321 327 492 522 575 665 667 670 769 986 1001
b 298 176 255 291 321 395 670 1001
b 299 223 291 321 395 1001
b 300 130 185 200 291 295 318 321 327 492 522 575 665 667 769 797 986 1001
b 301 318 321 327 492 575 797 931
b 302 318 321 492 575 712 797 931
b 303 318 321 575 712 797 809 931
b 304 152 321 575 712 797 809 931
b 305 152 321 386 712 797 809 931
b 306 117 152 321 386 712 797 931
b 307 117 152 797 915
b 308 117 133 152 386 712
b 309 133 152 386 592 712
b 310 20 133 386 592
b 311 321 386 767 809 931
b 312 316 321 386 767 809
b 313 316 321 540 767 809
b 314 285 316 540 767
b 315 130 185 200 291 295 321 327 492 522 665 667 769 785 797 986 1001
b 316 130 295 522 667 785 828 1001
b 317 295 343 522 667 785 828 1001
b 318 295 308 343 667 785 828 1001
b 319 37 295 308 343 785 828 1001
b 320 37 136 308 343 785 828 1001
b 321 11 37 136 308 785 828 1001
b 322 11 92 785 828
b 323 11 136 308 468 828
b 324 11 284 468 828
b 325 136 308 468 684
b 326 308 468 828 939
b 327 37 136 343 445 1001
b 328 136 343 445 559 1001
b 329 136 394 445 559
b 330 130 185 200 291 321 327 492 522 665 769 785 797 824 986 1001
b 331 130 291 327 492 518 522 824
b 332 291 294 327 492 518 522 824
b 333 291 294 327 492 518 539 824
b 334 291 294 492 518 523 539 824
b 335 518 523 542 824
b 336 291 294 492 518 523 539 612
b 337 5 294 492 518 523 612
b 338 5 518 523 612 837
b 339 518 523 820 837
b 340 5 19 518 837
b 341 5 612 837 976
b 342 28 291 294 539 612
b 343 28 291 294 493
b 344 23 28 291 539
b 345 185 200 291 321 486 665 769 785 797 824 986 1001
b 346 185 291 321 356 486 665 769 785 797 824 986 1001
b 347 356 462 769 797 824 986
b 348 122 356 462 769 986
b 349 122 277 356 462 986
b 350 10 122 277 356
b 351 277 356 744 986
b 352 185 203 291 356 486 665 785 824 986 1001
b 353 203 665 785 824 953 986
b 354 203 665 775 953 986
b 355 203 758 775 953 986
b 356 203 614 758 775
b 357 203 615 758 986
b 358 185 203 356 486 517
b 359 200 486 785 797 845 986
b 360 200 486 845 941 986
b 361 486 845 878 941 986
b 362 379 486 878 986
b 363 486 794 878 941
b 364 200 239 382 436 439 442 569 665
b 365 423 439 442 665
b 366 200 239 382 436 442 569 729
b 367 200 382 436 442 569 661 729
b 368 200 388 436 442 569 661 729
b 369 388 436 442 569 661 711 729
b 370 116 388 442 569 661 711 729
b 371 116 349 388 442 661 711 729
b 372 349 442 661 711 899
b 373 166 349 661 899
b 374 442 661 753 899
b 375 429 442 711 899
b 376 86 116 349 388 442 711 729
b 377 86 388 729 816
b 378 86 116 349 729 740
b 379 116 349 651 729 740
b 380 349 622 651 740
b 381 71 436 439 569 580 665 769 995
b 382 71 427 439 769
b 383 71 436 569 580 665 904 995
b 384 71 569 580 665 732 904 995
b 385 71 569 576 580 732 904 995
b 386 71 508 576 580 732 904 995
b 387 52 71 508 576 580 732 904
b 388 52 71 508 574 576 732 904
b 389 52 553 574 576
b 390 71 508 574 576 631 904
b 391 71 481 631 904
b 392 71 171 508 631
b 393 197 508 574 576 631
b 394 197 574 576 645
b 395 52 71 311 574 732 904
b 396 42 52 311 732
b 397 52 311 574 599
b 398 242 406 757 842
b 399 327 490 492 521 530 561 565
b 400 318 327 575 749 777 970 1000
b 401 318 327 492 575 749 970 1000
b 402 182 264 319 337 473 521 530 561 565 749 770 821 970
b 403 130 148 164 185 248 264 295 385 521 522 530 667 705 825 887
b 404 22 96 130 148 185 248 264 295 521 522 530 534 597 667 705 887 908
b 405 22 96 130 148 185 248 264 295 318 327 337 436 492 521 522 530 534 569 575 580 597 667 705 880 908 995
b 406 175 264 319 337 473 521 530 561 565 597 749 770 821 970
b 407 175 264 327 337 473 492 521 530 561 565 597 749 770 821 970
b 408 22 175 264 318 327 337 436 473 492 521 530 569 575 580 597 770 821 880 908 995
b 409 175 264 318 327 337 473 492 521 530 575 597 749 770 821 970
b 410 175 264 318 327 337 473 492 521 530 575 597 770 821 995
b 411 22 96 512 534 597 705 887 908
b 412 22 96 512 534 887 908 920
b 413 96 512 534 855 887 908 920
b 414 96 491 512 534 855 887 920
b 415 96 415 491 512 534 855 920
b 416 96 179 415 491 512 855 920
b 417 179 415 491 512 855 920 935
b 418 179 240 415 512 855 920 935
b 419 240 415 855 935 980
b 420 240 251 415 855 980
b 421 100 240 251 980
b 422 179 240 512 806 920
b 423 98 179 512 806
b 424 240 806 888 920
b 425 512 756 806 920
b 426 491 795 855 935
b 427 512 597 610 705
b 428 22 248 597 887 908 987
b 429 22 248 908 987 989
b 430 22 248 831 987 989
b 431 22 258 831 987 989
b 432 258 831 946 987 989
b 433 111 258 946 987 989
b 434 111 258 598 987 989
b 435 111 258 598 737 987
b 436 258 562 598 737 987
b 437 83 562 598 737
b 438 258 527 562 737 987
b 439 258 527 586 987
b 440 524 527 562 737
b 441 527 548 562 987
b 442 111 598 737 812
b 443 801 831 946 989
b 444 260 597 887 987
b 445 164 169 264 385 825
b 446 14 130 148 164 185 248 295 385 475 521 522 530 667 705 825 887
b 447 12 14 130 148 164 185 295 385 475 521 522 530 667 705 825 887
b 448 12 14 185 385 475 521 530 563 705 825 887
b 449 12 14 185 358 521 530 563 705 825
b 450 12 126 358 521 530 563
b 451 12 126 521 530 687
b 452 185 209 358 705 825
b 453 185 209 358 484 825
b 454 108 209 484 825
b 455 185 470 484 825
b 456 185 385 563 865 887
b 457 185 385 563 675 865
b 458 81 185 385 675
b 459 385 675 865 973
b 460 12 14 130 148 164 295 385 447 475 521 522 530 667 825
b 461 130 295 447 475 522 667 912
b 462 130 447 475 522 667 702 912
b 463 130 426 447 475 667 702 912
b 464 426 447 475 528 667 702 912
b 465 447 528 702 755 912
b 466 265 447 528 755 912
b 467 49 265 528 755
b 468 206 426 447 475 528 667 702
b 469 64 206 426 475 528 667
b 470 64 206 426 528 733
b 471 426 449 528 733
b 472 64 149 426 733
b 473 64 206 663 733
b 474 64 206 307 475
b 475 12 14 148 164 295 447 521 530 667 761 825
b 476 14 295 521 530 667 761 983
b 477 14 295 428 530 667 761 983
b 478 14 292 295 428 667 761 983
b 479 14 220 292 428 667 761 983
b 480 14 220 292 428 761 802 983
b 481 14 341 428 802
b 482 105 220 292 428 761 802 983
b 483 105 138 220 428 802
b 484 138 220 324 428
b 485 57 138 428 802
b 486 105 138 220 823
b 487 105 292 761 903 983
b 488 105 467 761 903 983
b 489 105 245 467 903
b 490 12 147 148 447 761
b 491 14 164 185 248 322 475
b 492 158 164 185 248 322
b 493 158 164 248 322 350
b 494 80 158 322 350
b 495 248 322 350 404
b 496 318 575 722 749 777 970 1000
b 497 575 682 722 749 777 970 1000
b 498 575 682 749 777 886 970 1000
b 499 253 575 682 749 886 1000
b 500 253 453 682 886 1000
b 501 253 409 453 1000
b 502 253 453 886 974
b 503 253 357 749 886
b 504 438 682 722 777 970
b 505 315 438 682 722
b 506 76 438 722 970
b 507 435 438 777 970
b 508 182 319 337 473 521 530 561 565 749 770 821 868 970
b 509 182 319 337 473 521 530 545 561 565 821 868
b 510 182 326 521 530 545 868
b 511 182 326 441 521 530
b 512 182 319 337 473 545 565 821 945
b 513 319 473 545 821 838 945
b 514 319 545 838 913 945
b 515 319 355 913 945
b 516 430 838 913 945
b 517 55 473 821 838
b 518 182 249 319 337 770 868 970
b 519 249 319 770 868 919
b 520 249 319 868 919 998
b 521 155 249 319 998
b 522 249 609 919 998
b 523 175 199 319 337 561 565 749 970
b 524 175 199 319 561 632 749
b 525 175 199 319 632 969
b 526 175 199 632 829 969
b 527 368 632 829 969
b 528 327 363 490 492 530 561 565
b 529 327 363 490 492 561 565 617
b 530 363 490 492 561 565 617 805
b 531 490 565 617 778 805
b 532 617 778 805 901
b 533 565 617 778 952
b 534 278 490 565 778
b 535 247 363 490 492 561 565 805
b 536 230 247 363 492 561 805
b 537 230 247 363 805 893
b 538 230 261 363 805 893
b 539 142 261 805 893
b 540 230 235 247 561
b 541 22 175 436 473 569 580 770 821 851 880 908 995
b 542 436 473 569 580 770 851 948 995
b 543 436 473 569 580 923 948 995
b 544 436 473 569 580 890 923 948
b 545 372 436 473 569 890 923 948
b 546 372 473 569 739 890 923 948
b 547 207 473 739 890
b 548 372 569 739 847 890 923 948
b 549 372 844 847 923 948
b 550 844 847 892 923 948
b 551 280 844 847 892
b 552 362 569 739 847 890 923
b 553 362 371 739 847 890
b 554 18 362 371 847
b 555 371 653 739 890
b 556 236 362 371 890
b 557 726 770 851 948
b 558 22 175 187 436 569 770 821 851 908
b 559 22 187 436 569 681 770 908
b 560 187 436 569 633 681 770 908
b 561 187 436 569 627 633 681 770
b 562 119 187 436 569 627 633 681
b 563 119 187 569 627 633 647 681
b 564 119 187 444 647 681
b 565 119 187 444 643 647
b 566 402 444 643 647
b 567 89 187 569 627 633 647 681
b 568 36 89 569 627 633 647
b 569 36 89 633 647 786
b 570 36 89 786 925
b 571 577 633 647 786
b 572 36 633 786 993
b 573 36 89 627 843
b 574 22 175 187 229 821 851 908
b 575 175 187 229 476 851
b 576 6 175 229 476
b 577 22 229 821 908 996
b 578 229 393 821 908 996
b 579 229 257 393 908 996
b 580 229 257 393 996 999
b 581 257 393 417 996 999
b 582 257 393 417 765 996
b 583 103 257 393 417 765
b 584 103 257 393 587 765
b 585 103 257 422 587 765
b 586 103 120 422 587 765
b 587 68 120 587 765
b 588 103 120 422 446
b 589 120 422 443 587
b 590 67 393 587 765
b 591 393 557 765 996
b 592 153 182 326 441 530
b 593 153 182 326 441 911
b 594 43 153 182 441 911
b 595 43 153 182 433 441
b 596 153 182 433 441 747
b 597 182 433 441 747 876
b 598 182 441 716 747 876
b 599 716 747 876 964
b 600 182 271 441 716 876
b 601 271 716 853 876
b 602 182 271 304 441
b 603 182 271 607 716
b 604 140 433 747 876
b 605 12 47 126 530 687
b 606 12 47 126 687 741
b 607 47 126 374 741
b 608 12 47 687 741 965
b 609 12 47 741 789 965
b 610 12 47 413 789 965
b 611 12 413 789 861 965
b 612 12 269 413 861 965
b 613 269 861 932 965
b 614 269 413 861 960
b 615 12 269 927 965
b 616 413 450 789 861
b 617 12 217 687 965
b 618 549 979 986
b 619 927 965 968
b 620 850 895 981
b 621 9 888 920
b 622 658 883 947
b 623 360 876 964
b 624 582 870 926
b 625 590 868 919
b 626 243 866 879
b 627 861 871 960
b 628 856 909 994
b 629 366 855 980
b 630 851 880 928
b 631 276 847 923
b 632 457 845 941
b 633 400 844 948
b 634 30 818 842
b 635 154 801 946
b 636 797 889 931
b 637 629 795 935
b 638 660 794 878
b 639 161 786 993
b 640 778 779 952
b 641 775 953 1002
b 642 515 771 857
b 643 768 776 962
b 644 525 761 903
b 645 756 806 954
b 646 728 753 899
b 647 514 749 777
b 648 738 750 826
b 649 736 799 943
b 650 686 732 904
b 651 729 740 972
b 652 346 727 798
b 653 706 726 770
b 654 600 723 836
b 655 376 716 853
b 656 183 703 944
b 657 431 695 995
b 658 692 897 930
b 659 640 688 988
b 660 682 848 1000
b 661 192 675 973
b 662 638 674 813
b 663 464 671 800
b 664 670 780 956
b 665 664 673 690
b 666 79 654 811
b 667 132 653 890
b 668 145 652 748
b 669 547 648 657
b 670 627 681 724
b 671 334 622 651
b 672 4 620 650
b 673 26 617 901
b 674 614 656 758
b 675 212 610 705
b 676 533 609 998
b 677 456 608 808
b 678 259 606 984
b 679 300 604 914
b 680 419 602 832
b 681 157 598 812
b 682 589 717 902
b 683 510 586 987
b 684 325 583 907
b 685 328 580 924
b 686 221 578 788
b 687 577 633 782
b 688 178 576 645
b 689 571 624 810
b 690 193 570 710
b 691 202 563 865
b 692 296 553 574
b 693 121 551 762
b 694 545 714 838
b 695 541 854 971
b 696 539 824 917
b 697 531 701 977
b 698 451 528 912
b 699 527 548 882
b 700 524 562 635
b 701 523 542 619
b 702 95 522 623
b 703 437 521 691
b 704 518 715 820
b 705 507 862 881
b 706 495 621 885
b 707 59 492 815
b 708 344 490 561
b 709 224 489 543
b 710 488 504 730
b 711 106 483 966
b 712 480 659 709
b 713 16 475 702
b 714 310 472 558
b 715 470 825 898
b 716 468 713 939
b 717 459 630 669
b 718 458 639 735
b 719 165 452 852
b 720 72 448 696
b 721 163 447 755
b 722 445 781 1001
b 723 301 435 970
b 724 430 434 913
b 725 58 429 442
b 726 427 479 769
b 727 426 449 918
b 728 423 536 665
b 729 422 446 807
b 730 417 746 999
b 731 413 450 772
b 732 412 425 556
b 733 409 453 774
b 734 408 564 840
b 735 110 406 487
b 736 40 402 643
b 737 399 499 790
b 738 168 394 559
b 739 393 557 760
b 740 246 389 814
b 741 388 500 711
b 742 386 519 712
b 743 379 424 486
b 744 377 397 579
b 745 374 596 741
b 746 45 372 473
b 747 210 370 455
b 748 369 465 791
b 749 368 829 955
b 750 143 367 872
b 751 363 805 858
b 752 357 886 992
b 753 356 744 793
b 754 355 945 949
b 755 352 414 662
b 756 345 416 532
b 757 342 683 910
b 758 341 802 967
b 759 340 420 766
b 760 339 375 908
b 761 332 382 641
b 762 331 618 764
b 763 327 689 841
b 764 326 441 529
b 765 323 538 725
b 766 322 373 404
b 767 82 321 767
b 768 320 693 827
b 769 319 502 597
b 770 46 318 649
b 771 66 317 958
b 772 222 316 809
b 773 315 585 722
b 774 313 496 742
b 775 312 384 773
b 776 25 308 684
b 777 7 306 666
b 778 204 302 916
b 779 115 299 305
b 780 297 819 859
b 781 295 535 933
b 782 85 294 612
b 783 293 498 568
b 784 289 584 783
b 785 287 411 469
b 786 8 285 540
b 787 284 828 929
b 788 283 516 668
b 789 281 418 569
b 790 280 817 892
b 791 279 347 575
b 792 97 278 565
b 793 272 354 391
b 794 271 607 694
b 795 269 698 932
b 796 268 506 573
b 797 91 267 721
b 798 266 704 985
b 799 263 494 787
b 800 260 849 887
b 801 258 396 831
b 802 255 501 900
b 803 254 637 734
b 804 253 309 974
b 805 250 273 763
b 806 248 625 950
b 807 245 467 595
b 808 174 242 757
b 809 240 415 461
b 810 238 262 752
b 811 236 371 884
b 812 235 247 478
b 813 233 237 830
b 814 213 232 567
b 815 230 697 893
b 816 170 229 996
b 817 227 655 743
b 818 225 244 685
b 819 223 395 896
b 820 220 485 823
b 821 219 471 591
b 822 218 314 628
b 823 216 611 839
b 824 209 358 720
b 825 198 208 792
b 826 207 636 739
b 827 77 206 307
b 828 205 401 719
b 829 203 572 615
b 830 102 201 784
b 831 201 667 699
b 832 199 403 969
b 833 197 482 508
b 834 124 187 444
b 835 99 186 934
b 836 62 185 517
b 837 21 182 304
b 838 180 680 803
b 839 179 491 991
b 840 177 181 835
b 841 176 195 241
b 842 93 175 632
b 843 171 631 678
b 844 169 252 264
b 845 167 184 560
b 846 166 661 891
b 847 162 335 353
b 848 160 215 937
b 849 159 421 463
b 850 125 158 164
b 851 156 359 796
b 852 109 155 249
b 853 153 433 477
b 854 150 338 603
b 855 149 290 733
b 856 148 534 822
b 857 147 148 390
b 858 147 381 626
b 859 147 454 626
b 860 147 390 454
b 861 147 288 381
b 862 146 282 677
b 863 113 142 261
b 864 141 530 731
b 865 140 594 747
b 866 139 172 544
b 867 138 324 921
b 868 137 383 877
b 869 136 343 759
b 870 135 804 963
b 871 133 152 348
b 872 131 188 846
b 873 130 834 906
b 874 129 329 581
b 875 65 128 364
b 876 126 550 687
b 877 122 462 616
b 878 120 443 526
b 879 119 214 647
b 880 117 520 915
b 881 116 349 380
b 882 114 863 959
b 883 111 234 989
b 884 108 466 484
b 885 107 256 333
b 886 105 275 983
b 887 104 497 975
b 888 103 257 387
b 889 102 336 784
b 890 101 200 613
b 891 100 251 997
b 892 90 98 512
b 893 96 474 646
b 894 94 228 407
b 895 48 89 843
b 896 87 88 173
b 897 86 189 816
b 898 83 605 737
b 899 81 385 537
b 900 53 80 350
b 901 78 274 503
b 902 76 438 873
b 903 75 123 634
b 904 74 144 439
b 905 74 144 286
b 906 74 286 860
b 907 74 298 860
b 908 73 337 679
b 909 71 303 481
b 910 70 745 951
b 911 69 191 990
b 912 68 566 587
b 913 67 361 765
b 914 64 663 874
b 915 63 231 392
b 916 13 61 875
b 917 60 351 644
b 918 57 428 936
b 919 55 718 821
b 920 54 211 552
b 921 52 546 599
b 922 51 127 436
b 923 50 700 982
b 924 49 265 601
b 925 47 789 957
b 926 44 440 867
b 927 33 43 911
b 928 42 311 708
b 929 41 56 978
b 930 39 270 509
b 931 38 460 940
b 932 37 785 942
b 933 36 190 925
b 934 35 593 938
b 935 34 410 751
b 936 32 118 672
b 937 31 588 833
b 938 29 398 894
b 939 28 493 864
b 940 27 239 555
b 941 24 84 642
b 942 23 291 922
b 943 22 196 961
b 944 20 134 592
b 945 19 513 837
b 946 18 151 362
b 947 17 432 869
b 948 15 405 505
b 949 14 292 554
b 950 12 194 217
b 951 11 92 112
b 952 10 277 365
b 953 6 476 707
b 954 5 330 976
b 955 3 378 511
b 956 2 676 754
b 957 1 226 905
1 957
1 2
2 735
2 3
3 6
3 5
3 4
4 672
5 757
6 7
7 398
7 8
8 12
8 10
8 9
9 656
10 712
10 11
11 634
12 13
13 14
14 856
14 17
14 15
15 405
15 16
16 806
17 831
17 28
17 18
18 943
18 19
19 657
19 20
20 893
20 21
21 761
21 22
22 922
22 24
22 25
22 26
22 27
22 23
23 830
24 685
25 940
26 789
27 760
28 39
28 29
29 703
29 30
30 770
30 31
31 702
31 32
32 763
32 33
33 781
33 35
33 36
33 37
33 38
33 34
34 791
35 904
36 864
37 707
38 873
39 278
39 40
40 160
40 41
41 42
42 43
42 107
43 44
43 106
44 49
44 45
45 805
45 46
46 47
46 48
47 955
48 711
49 50
49 55
49 101
50 51
51 690
51 52
52 53
52 54
53 747
54 669
55 87
55 56
56 71
56 57
57 58
58 759
58 59
59 60
60 70
60 61
61 845
61 67
61 62
62 63
63 66
63 65
63 64
64 684
65 732
66 903
67 642
67 68
68 69
69 796
70 854
71 72
71 86
72 73
73 74
74 75
75 798
75 76
76 799
76 83
76 77
77 78
77 79
78 930
79 82
79 80
79 81
80 874
81 648
82 887
83 85
83 84
84 686
85 821
86 908
87 88
88 748
88 89
89 90
90 91
91 838
91 92
91 95
92 94
92 93
93 765
94 788
95 100
95 96
96 99
96 98
96 97
97 720
98 783
99 818
100 911
101 102
102 663
102 103
103 104
103 105
104 872
105 665
106 744
107 145
107 108
108 866
108 126
108 109
109 110
109 125
110 111
111 112
112 113
113 114
114 750
114 115
114 118
115 117
115 116
116 649
117 825
118 119
118 123
119 122
119 120
119 121
120 780
121 779
122 828
123 784
123 124
124 680
125 768
126 127
126 129
127 128
128 929
129 130
129 131
130 870
131 132
132 133
133 875
133 134
134 144
134 135
135 682
135 136
135 139
136 137
136 138
137 931
138 626
139 140
140 143
140 142
140 141
141 948
142 847
143 938
144 916
145 146
146 147
147 148
148 719
148 149
149 150
149 151
150 643
151 709
151 152
151 155
152 153
152 154
153 762
154 624
155 156
156 157
156 158
156 159
157 718
158 710
159 797
160 161
160 176
161 162
162 163
163 164
164 848
164 165
165 166
166 172
166 167
166 173
167 169
167 168
167 170
168 785
169 894
170 935
170 171
171 885
172 706
173 174
173 175
174 956
175 934
176 263
176 177
177 178
177 248
178 179
178 243
179 180
179 184
180 901
180 181
181 182
181 183
182 841
183 659
184 238
184 185
185 618
185 221
185 186
186 202
186 187
187 188
188 189
189 190
190 191
191 896
191 192
192 697
192 199
192 193
193 198
193 194
194 195
194 196
194 197
195 851
196 862
197 662
198 937
199 666
199 200
200 201
201 823
202 219
202 203
203 204
203 205
204 936
205 206
206 207
207 771
207 208
208 209
209 215
209 216
209 210
210 212
210 211
210 213
211 652
212 920
213 714
213 214
214 822
215 620
216 217
216 218
217 917
218 755
219 220
220 705
221 237
221 222
222 223
223 224
224 679
224 225
225 226
226 668
226 227
226 232
227 228
228 910
228 229
229 947
229 230
230 231
231 813
232 236
232 233
233 234
233 235
234 658
235 678
236 734
237 817
238 239
239 689
239 240
240 242
240 241
241 802
242 915
243 244
244 664
244 245
245 246
245 247
246 793
247 740
248 249
249 695
249 250
250 251
251 252
252 654
252 253
252 256
253 254
253 255
254 840
255 717
256 257
257 262
257 258
258 261
258 259
258 260
259 849
260 814
261 882
262 803
263 264
264 265
265 266
265 267
266 622
267 268
267 270
268 777
268 269
269 628
270 271
270 272
271 756
272 273
273 274
273 275
273 276
274 775
275 693
276 774
276 277
277 923
278 279
278 381
279 280
279 297
279 364
280 281
280 282
281 890
282 283
283 284
284 285
285 778
285 286
286 296
286 287
287 292
287 288
288 835
288 289
289 291
289 290
290 677
291 926
292 293
292 294
292 295
293 941
294 737
295 810
296 868
297 298
297 300
298 299
299 819
300 301
300 315
301 636
301 302
302 303
303 304
304 305
305 742
305 311
305 306
306 308
306 307
307 880
308 871
308 309
309 310
310 944
311 767
311 312
312 772
312 313
313 314
314 786
315 316
315 330
316 317
317 318
318 319
319 932
319 320
320 869
320 327
320 321
321 322
321 323
322 951
323 324
323 326
323 325
324 787
325 776
326 716
327 722
327 328
328 329
329 738
330 331
330 345
331 332
332 333
333 696
333 334
334 335
334 336
335 701
336 782
336 342
336 337
337 338
338 340
338 339
338 341
339 704
340 945
341 954
342 344
342 343
343 939
344 942
345 359
345 346
346 347
346 352
347 348
348 877
348 349
349 350
349 351
350 952
351 753
352 358
352 353
353 354
354 641
354 355
355 356
355 357
356 674
357 829
358 836
359 360
360 632
360 361
361 362
361 363
362 743
363 638
364 365
364 366
365 728
366 367
367 368
368 369
369 741
369 370
370 371
371 881
371 372
371 376
372 373
372 374
372 375
373 846
374 646
375 725
376 378
376 377
377 897
378 651
378 379
379 380
380 671
381 382
381 383
382 726
383 384
384 650
384 385
385 386
386 387
387 388
388 389
388 395
388 390
389 692
390 392
390 391
390 393
391 909
392 843
393 833
393 394
394 688
395 396
395 397
396 928
397 921
398 808
399 708
399 528
399 407
400 647
400 496
400 401
401 409
402 508
402 406
403 446
403 445
403 404
404 428
404 411
404 405
405 408
406 769
406 523
406 407
407 409
408 541
408 410
409 410
411 427
411 412
412 413
413 414
414 415
415 416
416 839
416 417
417 426
417 418
418 809
418 419
418 422
419 629
419 420
420 421
421 891
422 423
422 425
422 424
423 892
424 621
425 645
426 637
427 675
428 429
428 444
429 430
430 431
431 801
431 432
432 433
432 443
433 883
433 434
434 435
435 442
435 436
436 437
436 438
437 898
438 440
438 441
438 439
439 683
440 700
441 699
442 681
443 635
444 800
445 844
446 447
446 491
447 460
447 448
448 449
448 456
449 452
449 450
450 451
451 876
451 605
452 824
452 453
453 454
453 455
454 884
455 715
456 691
456 457
457 458
457 459
458 899
459 661
460 461
460 475
461 462
462 713
462 463
463 464
464 698
464 465
464 468
465 721
465 466
466 467
467 924
468 469
469 474
469 470
470 472
470 471
470 473
471 727
472 855
473 914
474 827
475 476
475 490
476 477
477 478
478 949
478 479
479 480
480 481
480 482
481 758
482 886
482 483
482 487
483 485
483 484
483 486
484 867
485 918
486 820
487 644
487 488
488 489
489 807
490 857
491 492
492 850
492 493
493 494
493 495
494 900
495 766
496 497
497 660
497 504
497 498
498 499
499 503
499 500
500 502
500 501
501 733
502 804
503 752
504 506
504 505
504 507
505 773
506 902
507 723
508 509
508 518
509 510
509 512
510 511
511 764
511 592
512 513
513 694
513 517
513 514
514 515
514 516
515 754
516 724
517 919
518 519
519 625
519 520
520 521
520 522
521 852
522 676
523 524
524 842
524 525
525 832
525 526
526 527
527 749
528 529
529 530
530 751
530 531
530 535
531 534
531 533
531 532
532 673
533 640
534 792
535 536
536 540
536 537
537 815
537 538
538 539
539 863
540 812
541 630
541 542
541 558
542 543
542 557
543 544
544 545
545 746
545 546
546 547
546 548
547 826
548 631
548 549
548 552
549 633
549 550
550 551
551 790
552 553
553 554
553 556
553 555
554 946
555 667
556 811
557 653
558 574
558 559
559 560
560 561
561 670
561 562
562 563
563 879
563 564
563 567
564 834
564 565
565 566
566 736
567 568
568 573
568 569
569 571
569 572
569 570
570 933
571 687
572 639
573 895
574 575
574 577
575 576
576 953
577 816
577 578
578 579
579 580
580 581
581 730
581 582
582 591
582 583
583 888
583 584
584 590
584 585
585 586
586 587
586 589
586 588
587 912
588 729
589 878
590 913
591 739
592 593
593 594
594 927
594 595
595 853
595 596
596 597
597 604
597 598
598 599
598 600
599 623
600 601
600 603
600 602
601 655
602 837
603 794
604 865
605 606
606 608
606 607
607 745
608 617
608 609
609 925
609 610
610 611
611 616
611 612
612 615
612 613
612 614
613 795
614 627
615 619
616 731
617 950
830 889
857 860
858 861
858 859
859 860
904 905
905 906
906 907
